NAME:  br17e.07 
TYPE:  AHPP-TW 
COMMENT: br17.atsp + random time windows (N. Ascheuer, 1994) 
DIMENSION: 19 
EDGE_WEIGHT_TYPE: EXPLICIT 
EDGE_WEIGHT_FORMAT: FULL_MATRIX 
TIME_WINDOW_SECTION 
   1 :    0   [   0,    0]
   2 :   16   [   0, 9999999]
   3 :   36   [   0, 9999999]
   4 :   29   [ 255,  279]
   5 :   19   [   0, 9999999]
   6 :   34   [   0, 9999999]
   7 :   24   [   0, 9999999]
   8 :   18   [   0,  134]
   9 :   39   [ 342,  456]
  10 :   30   [ 542,  642]
  11 :   35   [ 286,  312]
  12 :   31   [ 169,  219]
  13 :   15   [   0, 9999999]
  14 :   39   [   0, 9999999]
  15 :   38   [   0, 9999999]
  16 :   25   [   0, 9999999]
  17 :   33   [   8,   78]
  18 :   40   [   0, 9999999]
  19 :    0   [13333332, 19999998]
EDGE_WEIGHT_SECTION 
  0   0   0   0   0   0   0   0   0   0   0   0   0   0   0   0   0   0   0 
  0   0   3   5  48  48   8   8   5   5   3   3   0   3   5   8   8   5   0 
  0   3   0   3  48  48   8   8   5   5   0   0   3   0   3   8   8   5   0 
  0   5   3   0  72  72  48  48  24  24   3   3   5   3   0  48  48  24   0 
  0  48  48  74   0   0   6   6  12  12  48  48  48  48  74   6   6  12   0 
  0  48  48  74   0   0   6   6  12  12  48  48  48  48  74   6   6  12   0 
  0   8   8  50   6   6   0   0   8   8   8   8   8   8  50   0   0   8   0 
  0   8   8  50   6   6   0   0   8   8   8   8   8   8  50   0   0   8   0 
  0   5   5  26  12  12   8   8   0   0   5   5   5   5  26   8   8   0   0 
  0   5   5  26  12  12   8   8   0   0   5   5   5   5  26   8   8   0   0 
  0   3   0   3  48  48   8   8   5   5   0   0   3   0   3   8   8   5   0 
  0   3   0   3  48  48   8   8   5   5   0   0   3   0   3   8   8   5   0 
  0   0   3   5  48  48   8   8   5   5   3   3   0   3   5   8   8   5   0 
  0   3   0   3  48  48   8   8   5   5   0   0   3   0   3   8   8   5   0 
  0   5   3   0  72  72  48  48  24  24   3   3   5   3   0  48  48  24   0 
  0   8   8  50   6   6   0   0   8   8   8   8   8   8  50   0   0   8   0 
  0   8   8  50   6   6   0   0   8   8   8   8   8   8  50   0   0   8   0 
  0   5   5  26  12  12   8   8   0   0   5   5   5   5  26   8   8   0   0 
  0   0   0   0   0   0   0   0   0   0   0   0   0   0   0   0   0   0   0 
EOF 
